c Generated map
c Size: 30 * 30, weights in range: 1 to 10, walls: True, with ratio 0.05
c dim 1 of 3
c
p sp 900 1569
c graph contains 900 nodes and 1569 arcs
c
a 1 31 5
a 31 1 5
a 1 2 2
a 2 1 2
a 2 32 2
a 32 2 2
a 2 3 10
a 3 2 10
a 3 33 2
a 33 3 2
a 5 35 10
a 35 5 10
a 5 6 8
a 6 5 8
a 6 36 1
a 36 6 1
a 6 7 3
a 7 6 3
a 7 37 1
a 37 7 1
a 7 8 6
a 8 7 6
a 8 38 9
a 38 8 9
a 8 9 6
a 9 8 6
a 9 39 7
a 39 9 7
a 9 10 3
a 10 9 3
a 10 40 6
a 40 10 6
a 10 11 4
a 11 10 4
a 11 41 6
a 41 11 6
a 11 12 9
a 12 11 9
a 12 42 3
a 42 12 3
a 12 13 7
a 13 12 7
a 13 43 7
a 43 13 7
a 13 14 5
a 14 13 5
a 14 44 7
a 44 14 7
a 14 15 2
a 15 14 2
a 15 45 10
a 45 15 10
a 15 16 4
a 16 15 4
a 16 46 4
a 46 16 4
a 16 17 9
a 17 16 9
a 17 47 9
a 47 17 9
a 17 18 1
a 18 17 1
a 18 48 9
a 48 18 9
a 18 19 5
a 19 18 5
a 19 49 2
a 49 19 2
a 19 20 2
a 20 19 2
a 20 50 2
a 50 20 2
a 20 21 8
a 21 20 8
a 21 51 3
a 51 21 3
a 21 22 10
a 22 21 10
a 22 52 4
a 52 22 4
a 22 23 2
a 23 22 2
a 23 53 4
a 53 23 4
a 23 24 1
a 24 23 1
a 24 54 6
a 54 24 6
a 24 25 2
a 25 24 2
a 25 55 1
a 55 25 1
a 25 26 10
a 26 25 10
a 26 27 3
a 27 26 3
a 27 57 2
a 57 27 2
a 27 28 8
a 28 27 8
a 28 58 6
a 58 28 6
a 28 29 10
a 29 28 10
a 29 30 9
a 30 29 9
a 30 60 1
a 60 30 1
a 31 61 1
a 61 31 1
a 31 32 3
a 32 31 3
a 32 33 2
a 33 32 2
a 33 63 2
a 63 33 2
a 35 65 5
a 65 35 5
a 35 36 10
a 36 35 10
a 36 66 2
a 66 36 2
a 36 37 7
a 37 36 7
a 37 67 3
a 67 37 3
a 37 38 5
a 38 37 5
a 38 68 8
a 68 38 8
a 38 39 4
a 39 38 4
a 39 69 3
a 69 39 3
a 39 40 1
a 40 39 1
a 40 70 8
a 70 40 8
a 40 41 4
a 41 40 4
a 41 71 9
a 71 41 9
a 41 42 10
a 42 41 10
a 42 72 9
a 72 42 9
a 42 43 10
a 43 42 10
a 43 73 9
a 73 43 9
a 43 44 4
a 44 43 4
a 44 74 10
a 74 44 10
a 44 45 1
a 45 44 1
a 45 75 1
a 75 45 1
a 45 46 2
a 46 45 2
a 46 76 2
a 76 46 2
a 46 47 1
a 47 46 1
a 47 77 4
a 77 47 4
a 47 48 3
a 48 47 3
a 48 78 8
a 78 48 8
a 48 49 4
a 49 48 4
a 49 79 7
a 79 49 7
a 49 50 3
a 50 49 3
a 50 80 7
a 80 50 7
a 50 51 4
a 51 50 4
a 51 81 10
a 81 51 10
a 51 52 9
a 52 51 9
a 52 82 9
a 82 52 9
a 52 53 2
a 53 52 2
a 53 83 6
a 83 53 6
a 53 54 4
a 54 53 4
a 54 84 10
a 84 54 10
a 54 55 8
a 55 54 8
a 55 85 4
a 85 55 4
a 57 87 7
a 87 57 7
a 57 58 3
a 58 57 3
a 58 88 6
a 88 58 6
a 60 90 9
a 90 60 9
a 61 91 5
a 91 61 5
a 63 93 5
a 93 63 5
a 63 64 9
a 64 63 9
a 64 94 4
a 94 64 4
a 64 65 10
a 65 64 10
a 65 95 9
a 95 65 9
a 65 66 2
a 66 65 2
a 66 96 5
a 96 66 5
a 66 67 5
a 67 66 5
a 67 97 9
a 97 67 9
a 67 68 10
a 68 67 10
a 68 98 6
a 98 68 6
a 68 69 5
a 69 68 5
a 69 99 2
a 99 69 2
a 69 70 10
a 70 69 10
a 70 100 9
a 100 70 9
a 70 71 9
a 71 70 9
a 71 101 5
a 101 71 5
a 71 72 8
a 72 71 8
a 72 102 4
a 102 72 4
a 72 73 10
a 73 72 10
a 73 103 1
a 103 73 1
a 73 74 8
a 74 73 8
a 74 104 5
a 104 74 5
a 74 75 1
a 75 74 1
a 75 105 10
a 105 75 10
a 75 76 4
a 76 75 4
a 76 106 6
a 106 76 6
a 76 77 3
a 77 76 3
a 77 107 5
a 107 77 5
a 77 78 8
a 78 77 8
a 78 108 2
a 108 78 2
a 78 79 6
a 79 78 6
a 79 109 8
a 109 79 8
a 79 80 7
a 80 79 7
a 80 110 1
a 110 80 1
a 80 81 5
a 81 80 5
a 81 111 4
a 111 81 4
a 81 82 1
a 82 81 1
a 82 112 6
a 112 82 6
a 82 83 8
a 83 82 8
a 83 113 7
a 113 83 7
a 83 84 5
a 84 83 5
a 84 114 8
a 114 84 8
a 84 85 10
a 85 84 10
a 85 115 5
a 115 85 5
a 85 86 7
a 86 85 7
a 86 116 5
a 116 86 5
a 86 87 6
a 87 86 6
a 87 117 7
a 117 87 7
a 87 88 10
a 88 87 10
a 88 118 6
a 118 88 6
a 90 120 10
a 120 90 10
a 91 121 10
a 121 91 10
a 91 92 2
a 92 91 2
a 92 93 7
a 93 92 7
a 93 123 9
a 123 93 9
a 93 94 6
a 94 93 6
a 94 124 2
a 124 94 2
a 94 95 8
a 95 94 8
a 95 125 9
a 125 95 9
a 95 96 2
a 96 95 2
a 96 126 3
a 126 96 3
a 96 97 4
a 97 96 4
a 97 127 5
a 127 97 5
a 97 98 3
a 98 97 3
a 98 128 1
a 128 98 1
a 98 99 9
a 99 98 9
a 99 129 2
a 129 99 2
a 99 100 1
a 100 99 1
a 100 130 10
a 130 100 10
a 100 101 10
a 101 100 10
a 101 131 8
a 131 101 8
a 101 102 6
a 102 101 6
a 102 132 7
a 132 102 7
a 102 103 2
a 103 102 2
a 103 133 4
a 133 103 4
a 103 104 10
a 104 103 10
a 104 134 8
a 134 104 8
a 104 105 1
a 105 104 1
a 105 106 8
a 106 105 8
a 106 136 7
a 136 106 7
a 106 107 8
a 107 106 8
a 107 137 2
a 137 107 2
a 107 108 7
a 108 107 7
a 108 138 9
a 138 108 9
a 108 109 4
a 109 108 4
a 109 139 9
a 139 109 9
a 109 110 1
a 110 109 1
a 110 140 10
a 140 110 10
a 110 111 6
a 111 110 6
a 111 141 8
a 141 111 8
a 111 112 5
a 112 111 5
a 112 142 10
a 142 112 10
a 112 113 3
a 113 112 3
a 113 143 1
a 143 113 1
a 113 114 7
a 114 113 7
a 114 144 8
a 144 114 8
a 114 115 3
a 115 114 3
a 115 145 10
a 145 115 10
a 115 116 10
a 116 115 10
a 116 146 1
a 146 116 1
a 116 117 3
a 117 116 3
a 117 147 5
a 147 117 5
a 117 118 10
a 118 117 10
a 118 148 5
a 148 118 5
a 118 119 10
a 119 118 10
a 119 149 3
a 149 119 3
a 119 120 10
a 120 119 10
a 120 150 1
a 150 120 1
a 121 151 8
a 151 121 8
a 123 153 1
a 153 123 1
a 123 124 5
a 124 123 5
a 124 154 9
a 154 124 9
a 124 125 8
a 125 124 8
a 125 155 7
a 155 125 7
a 125 126 9
a 126 125 9
a 126 156 6
a 156 126 6
a 126 127 9
a 127 126 9
a 127 157 3
a 157 127 3
a 127 128 1
a 128 127 1
a 128 158 8
a 158 128 8
a 128 129 6
a 129 128 6
a 129 159 9
a 159 129 9
a 129 130 1
a 130 129 1
a 130 160 7
a 160 130 7
a 130 131 1
a 131 130 1
a 131 161 10
a 161 131 10
a 131 132 10
a 132 131 10
a 132 162 4
a 162 132 4
a 132 133 9
a 133 132 9
a 133 163 5
a 163 133 5
a 133 134 3
a 134 133 3
a 134 164 8
a 164 134 8
a 136 166 8
a 166 136 8
a 136 137 6
a 137 136 6
a 137 167 10
a 167 137 10
a 137 138 10
a 138 137 10
a 138 168 7
a 168 138 7
a 138 139 10
a 139 138 10
a 139 169 10
a 169 139 10
a 139 140 5
a 140 139 5
a 140 170 6
a 170 140 6
a 140 141 2
a 141 140 2
a 141 171 8
a 171 141 8
a 141 142 8
a 142 141 8
a 142 172 9
a 172 142 9
a 142 143 9
a 143 142 9
a 143 173 9
a 173 143 9
a 143 144 3
a 144 143 3
a 144 174 1
a 174 144 1
a 144 145 6
a 145 144 6
a 145 146 1
a 146 145 1
a 146 176 2
a 176 146 2
a 146 147 3
a 147 146 3
a 147 177 3
a 177 147 3
a 147 148 10
a 148 147 10
a 148 178 2
a 178 148 2
a 148 149 7
a 149 148 7
a 149 179 1
a 179 149 1
a 149 150 3
a 150 149 3
a 151 181 1
a 181 151 1
a 151 152 4
a 152 151 4
a 152 182 1
a 182 152 1
a 152 153 5
a 153 152 5
a 153 183 7
a 183 153 7
a 153 154 6
a 154 153 6
a 154 184 6
a 184 154 6
a 154 155 9
a 155 154 9
a 155 185 10
a 185 155 10
a 155 156 7
a 156 155 7
a 156 186 4
a 186 156 4
a 156 157 8
a 157 156 8
a 157 187 6
a 187 157 6
a 157 158 3
a 158 157 3
a 158 188 10
a 188 158 10
a 158 159 9
a 159 158 9
a 159 189 10
a 189 159 10
a 159 160 4
a 160 159 4
a 160 190 5
a 190 160 5
a 160 161 4
a 161 160 4
a 161 191 2
a 191 161 2
a 161 162 6
a 162 161 6
a 162 192 9
a 192 162 9
a 162 163 8
a 163 162 8
a 163 193 8
a 193 163 8
a 163 164 3
a 164 163 3
a 164 194 2
a 194 164 2
a 164 165 4
a 165 164 4
a 165 195 1
a 195 165 1
a 165 166 3
a 166 165 3
a 166 196 4
a 196 166 4
a 166 167 7
a 167 166 7
a 167 197 5
a 197 167 5
a 167 168 3
a 168 167 3
a 168 198 1
a 198 168 1
a 168 169 3
a 169 168 3
a 169 199 5
a 199 169 5
a 169 170 8
a 170 169 8
a 170 200 7
a 200 170 7
a 170 171 10
a 171 170 10
a 171 201 3
a 201 171 3
a 171 172 8
a 172 171 8
a 172 202 9
a 202 172 9
a 172 173 2
a 173 172 2
a 173 203 3
a 203 173 3
a 173 174 1
a 174 173 1
a 174 204 3
a 204 174 3
a 176 206 3
a 206 176 3
a 176 177 5
a 177 176 5
a 177 207 9
a 207 177 9
a 177 178 5
a 178 177 5
a 178 208 7
a 208 178 7
a 178 179 2
a 179 178 2
a 179 209 5
a 209 179 5
a 181 211 1
a 211 181 1
a 181 182 3
a 182 181 3
a 182 212 2
a 212 182 2
a 182 183 5
a 183 182 5
a 183 213 5
a 213 183 5
a 183 184 6
a 184 183 6
a 184 214 2
a 214 184 2
a 184 185 4
a 185 184 4
a 185 215 2
a 215 185 2
a 185 186 2
a 186 185 2
a 186 216 8
a 216 186 8
a 186 187 3
a 187 186 3
a 187 217 9
a 217 187 9
a 187 188 8
a 188 187 8
a 188 218 3
a 218 188 3
a 188 189 6
a 189 188 6
a 189 219 4
a 219 189 4
a 189 190 3
a 190 189 3
a 190 220 1
a 220 190 1
a 190 191 2
a 191 190 2
a 191 221 8
a 221 191 8
a 191 192 5
a 192 191 5
a 192 222 7
a 222 192 7
a 192 193 5
a 193 192 5
a 193 194 8
a 194 193 8
a 194 224 5
a 224 194 5
a 194 195 3
a 195 194 3
a 195 225 10
a 225 195 10
a 195 196 9
a 196 195 9
a 196 226 1
a 226 196 1
a 196 197 8
a 197 196 8
a 197 227 4
a 227 197 4
a 197 198 2
a 198 197 2
a 198 228 10
a 228 198 10
a 198 199 8
a 199 198 8
a 199 229 2
a 229 199 2
a 199 200 2
a 200 199 2
a 200 230 4
a 230 200 4
a 200 201 1
a 201 200 1
a 201 231 9
a 231 201 9
a 201 202 3
a 202 201 3
a 202 203 8
a 203 202 8
a 203 233 8
a 233 203 8
a 203 204 1
a 204 203 1
a 204 234 7
a 234 204 7
a 204 205 5
a 205 204 5
a 205 235 7
a 235 205 7
a 205 206 7
a 206 205 7
a 206 236 5
a 236 206 5
a 206 207 7
a 207 206 7
a 207 237 1
a 237 207 1
a 207 208 1
a 208 207 1
a 208 238 5
a 238 208 5
a 208 209 10
a 209 208 10
a 209 239 10
a 239 209 10
a 209 210 2
a 210 209 2
a 210 240 3
a 240 210 3
a 211 241 3
a 241 211 3
a 211 212 10
a 212 211 10
a 212 213 2
a 213 212 2
a 213 243 1
a 243 213 1
a 213 214 1
a 214 213 1
a 214 244 3
a 244 214 3
a 214 215 4
a 215 214 4
a 215 216 9
a 216 215 9
a 216 246 3
a 246 216 3
a 216 217 6
a 217 216 6
a 217 247 3
a 247 217 3
a 217 218 7
a 218 217 7
a 218 248 7
a 248 218 7
a 218 219 2
a 219 218 2
a 219 249 2
a 249 219 2
a 219 220 10
a 220 219 10
a 220 250 4
a 250 220 4
a 220 221 7
a 221 220 7
a 221 251 6
a 251 221 6
a 221 222 6
a 222 221 6
a 222 252 8
a 252 222 8
a 224 254 10
a 254 224 10
a 224 225 4
a 225 224 4
a 225 255 3
a 255 225 3
a 225 226 9
a 226 225 9
a 226 256 3
a 256 226 3
a 226 227 1
a 227 226 1
a 227 257 4
a 257 227 4
a 227 228 2
a 228 227 2
a 228 258 8
a 258 228 8
a 228 229 3
a 229 228 3
a 229 259 9
a 259 229 9
a 229 230 2
a 230 229 2
a 230 231 1
a 231 230 1
a 231 261 3
a 261 231 3
a 233 263 1
a 263 233 1
a 233 234 8
a 234 233 8
a 234 264 3
a 264 234 3
a 234 235 7
a 235 234 7
a 235 236 10
a 236 235 10
a 236 266 9
a 266 236 9
a 236 237 7
a 237 236 7
a 237 238 8
a 238 237 8
a 238 268 6
a 268 238 6
a 238 239 4
a 239 238 4
a 239 269 8
a 269 239 8
a 239 240 2
a 240 239 2
a 240 270 7
a 270 240 7
a 241 271 8
a 271 241 8
a 243 273 9
a 273 243 9
a 243 244 5
a 244 243 5
a 244 274 9
a 274 244 9
a 246 276 10
a 276 246 10
a 246 247 9
a 247 246 9
a 247 277 10
a 277 247 10
a 247 248 1
a 248 247 1
a 248 278 8
a 278 248 8
a 248 249 6
a 249 248 6
a 249 279 8
a 279 249 8
a 249 250 9
a 250 249 9
a 250 280 6
a 280 250 6
a 250 251 3
a 251 250 3
a 251 281 5
a 281 251 5
a 251 252 10
a 252 251 10
a 252 282 9
a 282 252 9
a 252 253 3
a 253 252 3
a 253 283 3
a 283 253 3
a 253 254 5
a 254 253 5
a 254 255 5
a 255 254 5
a 255 285 8
a 285 255 8
a 255 256 9
a 256 255 9
a 256 286 7
a 286 256 7
a 256 257 9
a 257 256 9
a 257 287 1
a 287 257 1
a 257 258 6
a 258 257 6
a 258 288 3
a 288 258 3
a 258 259 4
a 259 258 4
a 259 289 8
a 289 259 8
a 261 291 10
a 291 261 10
a 261 262 2
a 262 261 2
a 262 292 8
a 292 262 8
a 262 263 5
a 263 262 5
a 263 293 3
a 293 263 3
a 263 264 6
a 264 263 6
a 264 294 9
a 294 264 9
a 266 296 8
a 296 266 8
a 268 298 2
a 298 268 2
a 268 269 4
a 269 268 4
a 269 299 7
a 299 269 7
a 269 270 6
a 270 269 6
a 270 300 3
a 300 270 3
a 271 301 7
a 301 271 7
a 271 272 7
a 272 271 7
a 272 302 8
a 302 272 8
a 272 273 2
a 273 272 2
a 273 303 4
a 303 273 4
a 273 274 10
a 274 273 10
a 274 304 2
a 304 274 2
a 274 275 9
a 275 274 9
a 275 305 8
a 305 275 8
a 275 276 2
a 276 275 2
a 276 306 4
a 306 276 4
a 276 277 1
a 277 276 1
a 277 307 9
a 307 277 9
a 277 278 9
a 278 277 9
a 278 308 9
a 308 278 9
a 278 279 2
a 279 278 2
a 279 309 2
a 309 279 2
a 279 280 2
a 280 279 2
a 280 310 7
a 310 280 7
a 280 281 6
a 281 280 6
a 281 311 7
a 311 281 7
a 281 282 3
a 282 281 3
a 282 312 8
a 312 282 8
a 282 283 7
a 283 282 7
a 283 313 5
a 313 283 5
a 285 315 9
a 315 285 9
a 285 286 1
a 286 285 1
a 286 287 1
a 287 286 1
a 287 317 4
a 317 287 4
a 287 288 6
a 288 287 6
a 288 318 5
a 318 288 5
a 288 289 8
a 289 288 8
a 289 319 9
a 319 289 9
a 289 290 8
a 290 289 8
a 290 320 10
a 320 290 10
a 290 291 4
a 291 290 4
a 291 321 4
a 321 291 4
a 291 292 5
a 292 291 5
a 292 322 6
a 322 292 6
a 292 293 10
a 293 292 10
a 293 323 8
a 323 293 8
a 293 294 4
a 294 293 4
a 294 324 8
a 324 294 8
a 294 295 4
a 295 294 4
a 295 325 8
a 325 295 8
a 295 296 9
a 296 295 9
a 296 326 5
a 326 296 5
a 296 297 4
a 297 296 4
a 297 327 2
a 327 297 2
a 297 298 4
a 298 297 4
a 298 328 10
a 328 298 10
a 298 299 4
a 299 298 4
a 299 329 7
a 329 299 7
a 299 300 5
a 300 299 5
a 300 330 3
a 330 300 3
a 301 331 6
a 331 301 6
a 301 302 8
a 302 301 8
a 302 332 1
a 332 302 1
a 302 303 9
a 303 302 9
a 303 333 7
a 333 303 7
a 303 304 3
a 304 303 3
a 304 334 5
a 334 304 5
a 304 305 4
a 305 304 4
a 305 335 3
a 335 305 3
a 305 306 7
a 306 305 7
a 306 336 1
a 336 306 1
a 306 307 5
a 307 306 5
a 307 337 5
a 337 307 5
a 307 308 3
a 308 307 3
a 308 338 1
a 338 308 1
a 308 309 6
a 309 308 6
a 309 339 2
a 339 309 2
a 309 310 8
a 310 309 8
a 310 340 10
a 340 310 10
a 310 311 8
a 311 310 8
a 311 341 2
a 341 311 2
a 311 312 9
a 312 311 9
a 312 342 1
a 342 312 1
a 312 313 10
a 313 312 10
a 313 343 1
a 343 313 1
a 313 314 8
a 314 313 8
a 314 344 9
a 344 314 9
a 314 315 10
a 315 314 10
a 315 345 6
a 345 315 6
a 317 347 2
a 347 317 2
a 317 318 1
a 318 317 1
a 318 348 5
a 348 318 5
a 318 319 4
a 319 318 4
a 319 349 1
a 349 319 1
a 319 320 1
a 320 319 1
a 320 321 9
a 321 320 9
a 321 351 6
a 351 321 6
a 321 322 7
a 322 321 7
a 322 352 5
a 352 322 5
a 322 323 6
a 323 322 6
a 323 353 7
a 353 323 7
a 323 324 2
a 324 323 2
a 324 354 4
a 354 324 4
a 324 325 5
a 325 324 5
a 325 355 10
a 355 325 10
a 325 326 8
a 326 325 8
a 326 356 10
a 356 326 10
a 326 327 3
a 327 326 3
a 327 357 10
a 357 327 10
a 327 328 4
a 328 327 4
a 328 358 1
a 358 328 1
a 328 329 7
a 329 328 7
a 329 359 9
a 359 329 9
a 329 330 1
a 330 329 1
a 330 360 9
a 360 330 9
a 331 361 2
a 361 331 2
a 331 332 6
a 332 331 6
a 332 362 4
a 362 332 4
a 332 333 5
a 333 332 5
a 333 363 2
a 363 333 2
a 333 334 4
a 334 333 4
a 334 364 8
a 364 334 8
a 334 335 10
a 335 334 10
a 335 365 4
a 365 335 4
a 335 336 8
a 336 335 8
a 336 366 8
a 366 336 8
a 336 337 7
a 337 336 7
a 337 367 10
a 367 337 10
a 337 338 10
a 338 337 10
a 338 368 6
a 368 338 6
a 338 339 8
a 339 338 8
a 339 369 3
a 369 339 3
a 339 340 8
a 340 339 8
a 340 370 6
a 370 340 6
a 340 341 3
a 341 340 3
a 341 371 9
a 371 341 9
a 341 342 5
a 342 341 5
a 342 372 9
a 372 342 9
a 342 343 7
a 343 342 7
a 343 373 6
a 373 343 6
a 343 344 9
a 344 343 9
a 344 374 10
a 374 344 10
a 344 345 4
a 345 344 4
a 345 375 10
a 375 345 10
a 345 346 5
a 346 345 5
a 346 376 1
a 376 346 1
a 346 347 1
a 347 346 1
a 347 377 9
a 377 347 9
a 347 348 10
a 348 347 10
a 348 378 8
a 378 348 8
a 348 349 10
a 349 348 10
a 349 379 5
a 379 349 5
a 351 352 3
a 352 351 3
a 352 382 8
a 382 352 8
a 352 353 1
a 353 352 1
a 353 383 9
a 383 353 9
a 353 354 6
a 354 353 6
a 354 384 8
a 384 354 8
a 354 355 8
a 355 354 8
a 355 385 8
a 385 355 8
a 355 356 8
a 356 355 8
a 356 386 1
a 386 356 1
a 356 357 3
a 357 356 3
a 357 387 6
a 387 357 6
a 357 358 8
a 358 357 8
a 358 388 3
a 388 358 3
a 358 359 6
a 359 358 6
a 359 389 7
a 389 359 7
a 359 360 3
a 360 359 3
a 360 390 6
a 390 360 6
a 361 391 10
a 391 361 10
a 361 362 10
a 362 361 10
a 362 392 9
a 392 362 9
a 362 363 1
a 363 362 1
a 363 393 7
a 393 363 7
a 363 364 1
a 364 363 1
a 364 394 6
a 394 364 6
a 364 365 4
a 365 364 4
a 365 395 4
a 395 365 4
a 365 366 6
a 366 365 6
a 366 396 9
a 396 366 9
a 366 367 5
a 367 366 5
a 367 397 7
a 397 367 7
a 367 368 4
a 368 367 4
a 368 369 7
a 369 368 7
a 369 370 3
a 370 369 3
a 370 400 6
a 400 370 6
a 370 371 9
a 371 370 9
a 371 401 2
a 401 371 2
a 371 372 3
a 372 371 3
a 372 402 6
a 402 372 6
a 372 373 2
a 373 372 2
a 373 403 10
a 403 373 10
a 373 374 10
a 374 373 10
a 374 404 5
a 404 374 5
a 374 375 8
a 375 374 8
a 375 405 6
a 405 375 6
a 375 376 9
a 376 375 9
a 376 406 2
a 406 376 2
a 376 377 4
a 377 376 4
a 377 407 6
a 407 377 6
a 377 378 6
a 378 377 6
a 378 408 7
a 408 378 7
a 378 379 8
a 379 378 8
a 379 409 6
a 409 379 6
a 379 380 9
a 380 379 9
a 380 410 5
a 410 380 5
a 382 412 3
a 412 382 3
a 382 383 5
a 383 382 5
a 383 413 7
a 413 383 7
a 383 384 3
a 384 383 3
a 384 414 3
a 414 384 3
a 384 385 7
a 385 384 7
a 385 415 7
a 415 385 7
a 385 386 10
a 386 385 10
a 386 416 4
a 416 386 4
a 386 387 3
a 387 386 3
a 387 417 3
a 417 387 3
a 387 388 4
a 388 387 4
a 388 418 10
a 418 388 10
a 388 389 10
a 389 388 10
a 389 419 10
a 419 389 10
a 389 390 6
a 390 389 6
a 390 420 3
a 420 390 3
a 391 421 8
a 421 391 8
a 391 392 7
a 392 391 7
a 392 422 5
a 422 392 5
a 392 393 4
a 393 392 4
a 393 423 2
a 423 393 2
a 393 394 10
a 394 393 10
a 394 424 1
a 424 394 1
a 394 395 3
a 395 394 3
a 395 425 5
a 425 395 5
a 395 396 2
a 396 395 2
a 396 426 4
a 426 396 4
a 396 397 10
a 397 396 10
a 400 430 4
a 430 400 4
a 400 401 3
a 401 400 3
a 401 431 9
a 431 401 9
a 401 402 4
a 402 401 4
a 402 432 10
a 432 402 10
a 402 403 9
a 403 402 9
a 403 433 4
a 433 403 4
a 403 404 4
a 404 403 4
a 404 434 1
a 434 404 1
a 404 405 9
a 405 404 9
a 405 435 10
a 435 405 10
a 405 406 10
a 406 405 10
a 406 436 8
a 436 406 8
a 406 407 5
a 407 406 5
a 407 437 9
a 437 407 9
a 407 408 10
a 408 407 10
a 408 438 1
a 438 408 1
a 408 409 3
a 409 408 3
a 409 410 5
a 410 409 5
a 410 440 7
a 440 410 7
a 410 411 8
a 411 410 8
a 411 441 8
a 441 411 8
a 411 412 1
a 412 411 1
a 412 442 9
a 442 412 9
a 412 413 8
a 413 412 8
a 413 443 10
a 443 413 10
a 413 414 7
a 414 413 7
a 414 444 5
a 444 414 5
a 414 415 2
a 415 414 2
a 415 445 3
a 445 415 3
a 415 416 4
a 416 415 4
a 416 417 1
a 417 416 1
a 417 447 8
a 447 417 8
a 417 418 4
a 418 417 4
a 418 448 3
a 448 418 3
a 418 419 8
a 419 418 8
a 419 449 3
a 449 419 3
a 419 420 1
a 420 419 1
a 420 450 5
a 450 420 5
a 421 451 1
a 451 421 1
a 421 422 2
a 422 421 2
a 422 452 3
a 452 422 3
a 422 423 7
a 423 422 7
a 423 453 7
a 453 423 7
a 423 424 1
a 424 423 1
a 424 454 2
a 454 424 2
a 424 425 7
a 425 424 7
a 425 455 8
a 455 425 8
a 425 426 6
a 426 425 6
a 426 456 7
a 456 426 7
a 428 458 4
a 458 428 4
a 428 429 4
a 429 428 4
a 429 459 7
a 459 429 7
a 429 430 3
a 430 429 3
a 430 460 6
a 460 430 6
a 430 431 6
a 431 430 6
a 431 461 4
a 461 431 4
a 431 432 4
a 432 431 4
a 432 462 1
a 462 432 1
a 432 433 8
a 433 432 8
a 433 463 2
a 463 433 2
a 433 434 8
a 434 433 8
a 434 464 4
a 464 434 4
a 434 435 7
a 435 434 7
a 435 465 9
a 465 435 9
a 435 436 7
a 436 435 7
a 436 466 7
a 466 436 7
a 436 437 5
a 437 436 5
a 437 467 1
a 467 437 1
a 437 438 4
a 438 437 4
a 438 468 5
a 468 438 5
a 440 470 6
a 470 440 6
a 440 441 5
a 441 440 5
a 441 471 7
a 471 441 7
a 441 442 8
a 442 441 8
a 442 472 6
a 472 442 6
a 442 443 10
a 443 442 10
a 443 473 9
a 473 443 9
a 443 444 10
a 444 443 10
a 444 474 3
a 474 444 3
a 444 445 1
a 445 444 1
a 445 475 9
a 475 445 9
a 447 477 4
a 477 447 4
a 447 448 7
a 448 447 7
a 448 478 3
a 478 448 3
a 448 449 2
a 449 448 2
a 449 479 8
a 479 449 8
a 449 450 9
a 450 449 9
a 450 480 10
a 480 450 10
a 451 481 3
a 481 451 3
a 451 452 1
a 452 451 1
a 452 482 5
a 482 452 5
a 452 453 9
a 453 452 9
a 453 483 10
a 483 453 10
a 453 454 6
a 454 453 6
a 454 484 4
a 484 454 4
a 454 455 7
a 455 454 7
a 455 485 8
a 485 455 8
a 455 456 4
a 456 455 4
a 456 486 2
a 486 456 2
a 456 457 8
a 457 456 8
a 457 487 8
a 487 457 8
a 457 458 9
a 458 457 9
a 458 488 5
a 488 458 5
a 458 459 4
a 459 458 4
a 459 489 2
a 489 459 2
a 459 460 7
a 460 459 7
a 460 490 9
a 490 460 9
a 460 461 9
a 461 460 9
a 461 491 3
a 491 461 3
a 461 462 2
a 462 461 2
a 462 463 9
a 463 462 9
a 463 493 10
a 493 463 10
a 463 464 10
a 464 463 10
a 464 494 1
a 494 464 1
a 464 465 3
a 465 464 3
a 465 495 4
a 495 465 4
a 465 466 3
a 466 465 3
a 466 496 2
a 496 466 2
a 466 467 3
a 467 466 3
a 467 497 3
a 497 467 3
a 467 468 6
a 468 467 6
a 468 498 10
a 498 468 10
a 468 469 9
a 469 468 9
a 469 499 5
a 499 469 5
a 469 470 3
a 470 469 3
a 470 500 1
a 500 470 1
a 470 471 10
a 471 470 10
a 471 501 2
a 501 471 2
a 471 472 8
a 472 471 8
a 472 502 5
a 502 472 5
a 472 473 1
a 473 472 1
a 473 503 9
a 503 473 9
a 473 474 4
a 474 473 4
a 474 504 9
a 504 474 9
a 474 475 9
a 475 474 9
a 475 505 4
a 505 475 4
a 475 476 2
a 476 475 2
a 476 506 6
a 506 476 6
a 476 477 3
a 477 476 3
a 477 507 7
a 507 477 7
a 477 478 6
a 478 477 6
a 478 508 9
a 508 478 9
a 478 479 6
a 479 478 6
a 479 509 10
a 509 479 10
a 479 480 5
a 480 479 5
a 480 510 6
a 510 480 6
a 481 511 3
a 511 481 3
a 481 482 9
a 482 481 9
a 482 512 2
a 512 482 2
a 482 483 9
a 483 482 9
a 483 513 1
a 513 483 1
a 483 484 8
a 484 483 8
a 484 514 8
a 514 484 8
a 484 485 1
a 485 484 1
a 485 515 2
a 515 485 2
a 485 486 3
a 486 485 3
a 486 516 9
a 516 486 9
a 486 487 1
a 487 486 1
a 487 517 9
a 517 487 9
a 487 488 8
a 488 487 8
a 488 518 1
a 518 488 1
a 488 489 2
a 489 488 2
a 489 490 7
a 490 489 7
a 490 520 6
a 520 490 6
a 490 491 9
a 491 490 9
a 491 521 5
a 521 491 5
a 493 523 5
a 523 493 5
a 493 494 10
a 494 493 10
a 494 524 9
a 524 494 9
a 494 495 3
a 495 494 3
a 495 525 4
a 525 495 4
a 495 496 4
a 496 495 4
a 496 526 4
a 526 496 4
a 496 497 3
a 497 496 3
a 497 527 10
a 527 497 10
a 497 498 5
a 498 497 5
a 498 528 2
a 528 498 2
a 498 499 6
a 499 498 6
a 499 529 3
a 529 499 3
a 499 500 4
a 500 499 4
a 500 530 10
a 530 500 10
a 500 501 10
a 501 500 10
a 501 531 10
a 531 501 10
a 501 502 3
a 502 501 3
a 502 532 8
a 532 502 8
a 502 503 3
a 503 502 3
a 503 533 2
a 533 503 2
a 503 504 10
a 504 503 10
a 504 534 9
a 534 504 9
a 504 505 8
a 505 504 8
a 505 535 3
a 535 505 3
a 505 506 8
a 506 505 8
a 506 536 1
a 536 506 1
a 506 507 3
a 507 506 3
a 507 537 2
a 537 507 2
a 507 508 1
a 508 507 1
a 508 538 4
a 538 508 4
a 508 509 5
a 509 508 5
a 509 539 8
a 539 509 8
a 509 510 2
a 510 509 2
a 510 540 10
a 540 510 10
a 511 541 10
a 541 511 10
a 511 512 3
a 512 511 3
a 512 542 5
a 542 512 5
a 512 513 6
a 513 512 6
a 513 543 1
a 543 513 1
a 513 514 3
a 514 513 3
a 514 544 5
a 544 514 5
a 514 515 1
a 515 514 1
a 515 545 2
a 545 515 2
a 515 516 7
a 516 515 7
a 516 546 9
a 546 516 9
a 516 517 3
a 517 516 3
a 517 547 9
a 547 517 9
a 517 518 9
a 518 517 9
a 518 548 10
a 548 518 10
a 520 550 9
a 550 520 9
a 520 521 4
a 521 520 4
a 521 551 5
a 551 521 5
a 521 522 4
a 522 521 4
a 522 552 8
a 552 522 8
a 522 523 9
a 523 522 9
a 523 553 1
a 553 523 1
a 523 524 7
a 524 523 7
a 524 554 10
a 554 524 10
a 524 525 6
a 525 524 6
a 525 555 10
a 555 525 10
a 525 526 6
a 526 525 6
a 526 556 10
a 556 526 10
a 526 527 4
a 527 526 4
a 527 557 9
a 557 527 9
a 527 528 5
a 528 527 5
a 528 558 2
a 558 528 2
a 528 529 9
a 529 528 9
a 529 530 3
a 530 529 3
a 530 560 2
a 560 530 2
a 530 531 1
a 531 530 1
a 531 561 2
a 561 531 2
a 531 532 3
a 532 531 3
a 532 562 5
a 562 532 5
a 532 533 6
a 533 532 6
a 533 563 5
a 563 533 5
a 533 534 10
a 534 533 10
a 534 564 3
a 564 534 3
a 534 535 3
a 535 534 3
a 535 565 5
a 565 535 5
a 535 536 3
a 536 535 3
a 536 566 1
a 566 536 1
a 536 537 1
a 537 536 1
a 537 567 3
a 567 537 3
a 537 538 10
a 538 537 10
a 538 568 10
a 568 538 10
a 538 539 8
a 539 538 8
a 539 569 9
a 569 539 9
a 539 540 8
a 540 539 8
a 540 570 7
a 570 540 7
a 541 571 5
a 571 541 5
a 541 542 8
a 542 541 8
a 542 572 3
a 572 542 3
a 542 543 5
a 543 542 5
a 543 573 4
a 573 543 4
a 543 544 10
a 544 543 10
a 544 574 5
a 574 544 5
a 544 545 2
a 545 544 2
a 545 575 1
a 575 545 1
a 545 546 2
a 546 545 2
a 546 576 7
a 576 546 7
a 546 547 5
a 547 546 5
a 547 577 3
a 577 547 3
a 547 548 10
a 548 547 10
a 548 549 3
a 549 548 3
a 549 579 3
a 579 549 3
a 549 550 10
a 550 549 10
a 550 580 7
a 580 550 7
a 550 551 7
a 551 550 7
a 551 581 7
a 581 551 7
a 551 552 6
a 552 551 6
a 552 582 1
a 582 552 1
a 552 553 4
a 553 552 4
a 553 583 7
a 583 553 7
a 553 554 7
a 554 553 7
a 554 584 3
a 584 554 3
a 554 555 5
a 555 554 5
a 555 585 4
a 585 555 4
a 555 556 2
a 556 555 2
a 556 586 9
a 586 556 9
a 556 557 5
a 557 556 5
a 557 587 2
a 587 557 2
a 557 558 7
a 558 557 7
a 558 588 4
a 588 558 4
a 560 561 3
a 561 560 3
a 561 591 7
a 591 561 7
a 561 562 3
a 562 561 3
a 562 592 5
a 592 562 5
a 562 563 4
a 563 562 4
a 563 593 7
a 593 563 7
a 563 564 3
a 564 563 3
a 564 594 10
a 594 564 10
a 564 565 5
a 565 564 5
a 565 595 5
a 595 565 5
a 565 566 2
a 566 565 2
a 566 596 2
a 596 566 2
a 566 567 1
a 567 566 1
a 567 597 9
a 597 567 9
a 567 568 1
a 568 567 1
a 568 598 5
a 598 568 5
a 568 569 3
a 569 568 3
a 569 599 8
a 599 569 8
a 569 570 2
a 570 569 2
a 570 600 8
a 600 570 8
a 571 601 3
a 601 571 3
a 571 572 5
a 572 571 5
a 572 602 3
a 602 572 3
a 572 573 2
a 573 572 2
a 573 574 6
a 574 573 6
a 574 604 3
a 604 574 3
a 574 575 7
a 575 574 7
a 575 605 4
a 605 575 4
a 575 576 1
a 576 575 1
a 576 606 8
a 606 576 8
a 576 577 9
a 577 576 9
a 577 607 9
a 607 577 9
a 579 609 1
a 609 579 1
a 579 580 9
a 580 579 9
a 580 610 2
a 610 580 2
a 580 581 7
a 581 580 7
a 581 611 10
a 611 581 10
a 581 582 6
a 582 581 6
a 582 612 7
a 612 582 7
a 582 583 1
a 583 582 1
a 583 613 1
a 613 583 1
a 583 584 2
a 584 583 2
a 584 614 4
a 614 584 4
a 584 585 1
a 585 584 1
a 585 615 1
a 615 585 1
a 585 586 8
a 586 585 8
a 586 616 4
a 616 586 4
a 586 587 7
a 587 586 7
a 587 617 8
a 617 587 8
a 587 588 1
a 588 587 1
a 588 618 1
a 618 588 1
a 588 589 3
a 589 588 3
a 589 619 1
a 619 589 1
a 591 621 3
a 621 591 3
a 591 592 8
a 592 591 8
a 592 622 4
a 622 592 4
a 592 593 6
a 593 592 6
a 593 623 3
a 623 593 3
a 593 594 10
a 594 593 10
a 594 624 8
a 624 594 8
a 594 595 8
a 595 594 8
a 595 625 2
a 625 595 2
a 595 596 3
a 596 595 3
a 596 626 3
a 626 596 3
a 596 597 6
a 597 596 6
a 597 627 6
a 627 597 6
a 597 598 10
a 598 597 10
a 598 628 6
a 628 598 6
a 598 599 10
a 599 598 10
a 599 629 9
a 629 599 9
a 599 600 8
a 600 599 8
a 600 630 9
a 630 600 9
a 601 631 2
a 631 601 2
a 601 602 4
a 602 601 4
a 602 632 6
a 632 602 6
a 604 634 3
a 634 604 3
a 604 605 7
a 605 604 7
a 605 635 8
a 635 605 8
a 605 606 10
a 606 605 10
a 606 636 2
a 636 606 2
a 606 607 6
a 607 606 6
a 607 637 5
a 637 607 5
a 609 639 8
a 639 609 8
a 609 610 1
a 610 609 1
a 610 640 1
a 640 610 1
a 610 611 4
a 611 610 4
a 611 641 2
a 641 611 2
a 611 612 4
a 612 611 4
a 612 642 3
a 642 612 3
a 612 613 6
a 613 612 6
a 613 643 3
a 643 613 3
a 613 614 3
a 614 613 3
a 614 644 6
a 644 614 6
a 614 615 3
a 615 614 3
a 615 645 4
a 645 615 4
a 615 616 9
a 616 615 9
a 616 646 5
a 646 616 5
a 616 617 5
a 617 616 5
a 617 647 1
a 647 617 1
a 617 618 1
a 618 617 1
a 618 648 3
a 648 618 3
a 618 619 1
a 619 618 1
a 619 649 5
a 649 619 5
a 619 620 6
a 620 619 6
a 620 650 3
a 650 620 3
a 620 621 8
a 621 620 8
a 621 651 2
a 651 621 2
a 621 622 4
a 622 621 4
a 622 652 7
a 652 622 7
a 622 623 6
a 623 622 6
a 623 653 2
a 653 623 2
a 623 624 1
a 624 623 1
a 624 654 3
a 654 624 3
a 624 625 8
a 625 624 8
a 625 655 10
a 655 625 10
a 625 626 3
a 626 625 3
a 626 656 6
a 656 626 6
a 626 627 4
a 627 626 4
a 627 657 2
a 657 627 2
a 627 628 10
a 628 627 10
a 628 658 5
a 658 628 5
a 628 629 2
a 629 628 2
a 629 659 6
a 659 629 6
a 629 630 9
a 630 629 9
a 630 660 7
a 660 630 7
a 631 661 4
a 661 631 4
a 631 632 4
a 632 631 4
a 632 662 7
a 662 632 7
a 632 633 2
a 633 632 2
a 633 663 10
a 663 633 10
a 633 634 1
a 634 633 1
a 634 664 9
a 664 634 9
a 634 635 3
a 635 634 3
a 635 665 8
a 665 635 8
a 635 636 10
a 636 635 10
a 636 666 2
a 666 636 2
a 636 637 3
a 637 636 3
a 637 667 5
a 667 637 5
a 637 638 3
a 638 637 3
a 638 668 8
a 668 638 8
a 638 639 7
a 639 638 7
a 639 669 6
a 669 639 6
a 639 640 1
a 640 639 1
a 640 670 1
a 670 640 1
a 640 641 9
a 641 640 9
a 641 671 4
a 671 641 4
a 641 642 5
a 642 641 5
a 642 672 10
a 672 642 10
a 642 643 3
a 643 642 3
a 643 673 3
a 673 643 3
a 643 644 1
a 644 643 1
a 644 674 2
a 674 644 2
a 644 645 9
a 645 644 9
a 645 675 8
a 675 645 8
a 645 646 10
a 646 645 10
a 646 676 1
a 676 646 1
a 646 647 8
a 647 646 8
a 647 677 1
a 677 647 1
a 647 648 5
a 648 647 5
a 648 678 8
a 678 648 8
a 648 649 1
a 649 648 1
a 649 679 3
a 679 649 3
a 649 650 3
a 650 649 3
a 650 680 7
a 680 650 7
a 650 651 3
a 651 650 3
a 651 681 10
a 681 651 10
a 651 652 8
a 652 651 8
a 652 682 9
a 682 652 9
a 652 653 8
a 653 652 8
a 653 683 2
a 683 653 2
a 653 654 3
a 654 653 3
a 654 684 2
a 684 654 2
a 654 655 3
a 655 654 3
a 655 685 10
a 685 655 10
a 655 656 8
a 656 655 8
a 656 686 7
a 686 656 7
a 656 657 5
a 657 656 5
a 657 687 5
a 687 657 5
a 657 658 5
a 658 657 5
a 658 688 4
a 688 658 4
a 658 659 2
a 659 658 2
a 659 689 5
a 689 659 5
a 659 660 10
a 660 659 10
a 660 690 9
a 690 660 9
a 661 691 4
a 691 661 4
a 661 662 5
a 662 661 5
a 662 663 7
a 663 662 7
a 663 693 8
a 693 663 8
a 663 664 1
a 664 663 1
a 664 694 9
a 694 664 9
a 664 665 2
a 665 664 2
a 665 695 1
a 695 665 1
a 665 666 6
a 666 665 6
a 666 696 6
a 696 666 6
a 666 667 2
a 667 666 2
a 667 697 7
a 697 667 7
a 667 668 8
a 668 667 8
a 668 698 3
a 698 668 3
a 668 669 2
a 669 668 2
a 669 699 1
a 699 669 1
a 669 670 1
a 670 669 1
a 670 671 10
a 671 670 10
a 671 701 5
a 701 671 5
a 671 672 2
a 672 671 2
a 672 702 10
a 702 672 10
a 672 673 10
a 673 672 10
a 673 703 4
a 703 673 4
a 673 674 8
a 674 673 8
a 674 704 6
a 704 674 6
a 674 675 5
a 675 674 5
a 675 705 4
a 705 675 4
a 675 676 4
a 676 675 4
a 676 706 7
a 706 676 7
a 676 677 2
a 677 676 2
a 677 707 10
a 707 677 10
a 677 678 1
a 678 677 1
a 678 708 9
a 708 678 9
a 678 679 4
a 679 678 4
a 679 709 3
a 709 679 3
a 679 680 4
a 680 679 4
a 680 710 2
a 710 680 2
a 680 681 4
a 681 680 4
a 681 711 4
a 711 681 4
a 681 682 8
a 682 681 8
a 682 712 10
a 712 682 10
a 682 683 10
a 683 682 10
a 683 684 5
a 684 683 5
a 684 714 5
a 714 684 5
a 684 685 8
a 685 684 8
a 685 715 2
a 715 685 2
a 685 686 7
a 686 685 7
a 686 716 4
a 716 686 4
a 686 687 7
a 687 686 7
a 687 688 8
a 688 687 8
a 688 718 6
a 718 688 6
a 688 689 8
a 689 688 8
a 689 719 7
a 719 689 7
a 689 690 10
a 690 689 10
a 690 720 6
a 720 690 6
a 691 721 1
a 721 691 1
a 693 723 6
a 723 693 6
a 693 694 5
a 694 693 5
a 694 724 7
a 724 694 7
a 694 695 5
a 695 694 5
a 695 725 2
a 725 695 2
a 695 696 8
a 696 695 8
a 696 726 2
a 726 696 2
a 696 697 8
a 697 696 8
a 697 727 2
a 727 697 2
a 697 698 10
a 698 697 10
a 698 728 10
a 728 698 10
a 698 699 8
a 699 698 8
a 699 729 7
a 729 699 7
a 701 731 8
a 731 701 8
a 701 702 5
a 702 701 5
a 702 732 2
a 732 702 2
a 702 703 8
a 703 702 8
a 703 733 3
a 733 703 3
a 703 704 9
a 704 703 9
a 704 734 7
a 734 704 7
a 704 705 3
a 705 704 3
a 705 735 6
a 735 705 6
a 705 706 8
a 706 705 8
a 706 736 2
a 736 706 2
a 706 707 9
a 707 706 9
a 707 737 10
a 737 707 10
a 707 708 10
a 708 707 10
a 708 738 8
a 738 708 8
a 708 709 3
a 709 708 3
a 709 710 9
a 710 709 9
a 710 740 7
a 740 710 7
a 710 711 5
a 711 710 5
a 711 741 4
a 741 711 4
a 711 712 8
a 712 711 8
a 712 742 7
a 742 712 7
a 714 744 8
a 744 714 8
a 714 715 6
a 715 714 6
a 715 745 10
a 745 715 10
a 715 716 7
a 716 715 7
a 716 746 4
a 746 716 4
a 718 748 4
a 748 718 4
a 718 719 2
a 719 718 2
a 719 749 4
a 749 719 4
a 719 720 4
a 720 719 4
a 721 751 6
a 751 721 6
a 721 722 5
a 722 721 5
a 722 752 9
a 752 722 9
a 722 723 3
a 723 722 3
a 723 753 7
a 753 723 7
a 723 724 2
a 724 723 2
a 724 754 10
a 754 724 10
a 724 725 10
a 725 724 10
a 725 755 9
a 755 725 9
a 725 726 9
a 726 725 9
a 726 756 10
a 756 726 10
a 726 727 7
a 727 726 7
a 727 757 3
a 757 727 3
a 727 728 9
a 728 727 9
a 728 758 5
a 758 728 5
a 728 729 3
a 729 728 3
a 729 759 6
a 759 729 6
a 729 730 2
a 730 729 2
a 730 760 10
a 760 730 10
a 730 731 7
a 731 730 7
a 731 761 10
a 761 731 10
a 731 732 9
a 732 731 9
a 732 762 6
a 762 732 6
a 732 733 10
a 733 732 10
a 733 763 8
a 763 733 8
a 733 734 6
a 734 733 6
a 734 764 2
a 764 734 2
a 734 735 8
a 735 734 8
a 735 765 9
a 765 735 9
a 735 736 8
a 736 735 8
a 736 766 3
a 766 736 3
a 736 737 4
a 737 736 4
a 737 767 5
a 767 737 5
a 737 738 3
a 738 737 3
a 738 768 6
a 768 738 6
a 740 770 6
a 770 740 6
a 740 741 6
a 741 740 6
a 741 771 6
a 771 741 6
a 741 742 4
a 742 741 4
a 742 772 6
a 772 742 6
a 742 743 4
a 743 742 4
a 743 773 9
a 773 743 9
a 743 744 3
a 744 743 3
a 744 774 3
a 774 744 3
a 744 745 2
a 745 744 2
a 745 775 1
a 775 745 1
a 745 746 4
a 746 745 4
a 746 776 8
a 776 746 8
a 746 747 5
a 747 746 5
a 747 777 2
a 777 747 2
a 747 748 4
a 748 747 4
a 748 778 5
a 778 748 5
a 748 749 5
a 749 748 5
a 749 779 6
a 779 749 6
a 751 781 8
a 781 751 8
a 751 752 8
a 752 751 8
a 752 782 8
a 782 752 8
a 752 753 5
a 753 752 5
a 753 783 5
a 783 753 5
a 753 754 1
a 754 753 1
a 754 784 3
a 784 754 3
a 754 755 3
a 755 754 3
a 755 785 3
a 785 755 3
a 755 756 10
a 756 755 10
a 756 786 2
a 786 756 2
a 756 757 10
a 757 756 10
a 757 787 8
a 787 757 8
a 757 758 2
a 758 757 2
a 758 759 1
a 759 758 1
a 759 789 3
a 789 759 3
a 759 760 4
a 760 759 4
a 760 790 4
a 790 760 4
a 760 761 7
a 761 760 7
a 761 791 6
a 791 761 6
a 761 762 4
a 762 761 4
a 762 792 2
a 792 762 2
a 762 763 6
a 763 762 6
a 763 793 3
a 793 763 3
a 763 764 6
a 764 763 6
a 764 794 7
a 794 764 7
a 764 765 2
a 765 764 2
a 765 795 1
a 795 765 1
a 765 766 1
a 766 765 1
a 766 796 7
a 796 766 7
a 766 767 3
a 767 766 3
a 767 797 4
a 797 767 4
a 767 768 9
a 768 767 9
a 768 798 8
a 798 768 8
a 768 769 2
a 769 768 2
a 769 799 8
a 799 769 8
a 769 770 4
a 770 769 4
a 770 800 6
a 800 770 6
a 770 771 2
a 771 770 2
a 771 801 7
a 801 771 7
a 771 772 6
a 772 771 6
a 772 802 7
a 802 772 7
a 772 773 3
a 773 772 3
a 773 803 4
a 803 773 4
a 773 774 1
a 774 773 1
a 774 804 6
a 804 774 6
a 774 775 7
a 775 774 7
a 775 805 5
a 805 775 5
a 775 776 2
a 776 775 2
a 776 806 1
a 806 776 1
a 776 777 9
a 777 776 9
a 777 807 9
a 807 777 9
a 777 778 9
a 778 777 9
a 778 808 9
a 808 778 9
a 778 779 7
a 779 778 7
a 779 809 3
a 809 779 3
a 779 780 2
a 780 779 2
a 780 810 4
a 810 780 4
a 781 811 4
a 811 781 4
a 781 782 6
a 782 781 6
a 782 812 10
a 812 782 10
a 782 783 9
a 783 782 9
a 783 813 9
a 813 783 9
a 783 784 4
a 784 783 4
a 784 814 3
a 814 784 3
a 784 785 10
a 785 784 10
a 785 815 1
a 815 785 1
a 785 786 7
a 786 785 7
a 786 816 7
a 816 786 7
a 786 787 4
a 787 786 4
a 787 817 4
a 817 787 4
a 789 819 8
a 819 789 8
a 789 790 2
a 790 789 2
a 790 820 2
a 820 790 2
a 790 791 6
a 791 790 6
a 791 792 4
a 792 791 4
a 792 822 8
a 822 792 8
a 792 793 4
a 793 792 4
a 793 823 9
a 823 793 9
a 793 794 5
a 794 793 5
a 794 824 2
a 824 794 2
a 794 795 6
a 795 794 6
a 795 825 9
a 825 795 9
a 795 796 2
a 796 795 2
a 796 826 7
a 826 796 7
a 796 797 4
a 797 796 4
a 797 827 7
a 827 797 7
a 797 798 3
a 798 797 3
a 798 828 10
a 828 798 10
a 798 799 6
a 799 798 6
a 799 829 7
a 829 799 7
a 799 800 5
a 800 799 5
a 800 830 5
a 830 800 5
a 800 801 10
a 801 800 10
a 801 831 9
a 831 801 9
a 801 802 3
a 802 801 3
a 802 832 1
a 832 802 1
a 802 803 5
a 803 802 5
a 803 833 10
a 833 803 10
a 803 804 1
a 804 803 1
a 804 834 6
a 834 804 6
a 804 805 4
a 805 804 4
a 805 835 6
a 835 805 6
a 805 806 9
a 806 805 9
a 806 836 5
a 836 806 5
a 806 807 4
a 807 806 4
a 807 837 9
a 837 807 9
a 807 808 9
a 808 807 9
a 808 838 9
a 838 808 9
a 808 809 10
a 809 808 10
a 809 839 8
a 839 809 8
a 809 810 7
a 810 809 7
a 810 840 6
a 840 810 6
a 811 841 7
a 841 811 7
a 811 812 1
a 812 811 1
a 812 842 2
a 842 812 2
a 812 813 9
a 813 812 9
a 813 843 7
a 843 813 7
a 813 814 3
a 814 813 3
a 814 844 1
a 844 814 1
a 814 815 10
a 815 814 10
a 815 845 1
a 845 815 1
a 815 816 9
a 816 815 9
a 816 846 1
a 846 816 1
a 816 817 8
a 817 816 8
a 817 847 4
a 847 817 4
a 817 818 1
a 818 817 1
a 818 848 10
a 848 818 10
a 818 819 4
a 819 818 4
a 819 849 3
a 849 819 3
a 819 820 4
a 820 819 4
a 820 850 7
a 850 820 7
a 822 852 9
a 852 822 9
a 822 823 5
a 823 822 5
a 823 853 4
a 853 823 4
a 823 824 1
a 824 823 1
a 824 854 2
a 854 824 2
a 824 825 5
a 825 824 5
a 825 855 7
a 855 825 7
a 825 826 9
a 826 825 9
a 826 856 4
a 856 826 4
a 826 827 5
a 827 826 5
a 827 857 10
a 857 827 10
a 827 828 7
a 828 827 7
a 828 858 4
a 858 828 4
a 828 829 4
a 829 828 4
a 829 830 8
a 830 829 8
a 830 860 7
a 860 830 7
a 830 831 2
a 831 830 2
a 831 861 1
a 861 831 1
a 831 832 8
a 832 831 8
a 832 862 5
a 862 832 5
a 832 833 8
a 833 832 8
a 833 863 7
a 863 833 7
a 833 834 10
a 834 833 10
a 834 864 7
a 864 834 7
a 834 835 5
a 835 834 5
a 835 865 8
a 865 835 8
a 835 836 6
a 836 835 6
a 836 866 2
a 866 836 2
a 836 837 1
a 837 836 1
a 837 867 9
a 867 837 9
a 837 838 6
a 838 837 6
a 838 868 8
a 868 838 8
a 838 839 3
a 839 838 3
a 839 840 9
a 840 839 9
a 840 870 3
a 870 840 3
a 841 871 3
a 871 841 3
a 841 842 7
a 842 841 7
a 842 872 2
a 872 842 2
a 842 843 2
a 843 842 2
a 843 873 9
a 873 843 9
a 843 844 9
a 844 843 9
a 844 874 7
a 874 844 7
a 844 845 4
a 845 844 4
a 845 875 2
a 875 845 2
a 845 846 3
a 846 845 3
a 846 876 10
a 876 846 10
a 846 847 5
a 847 846 5
a 847 877 3
a 877 847 3
a 847 848 10
a 848 847 10
a 848 878 9
a 878 848 9
a 848 849 3
a 849 848 3
a 849 879 1
a 879 849 1
a 849 850 3
a 850 849 3
a 850 851 4
a 851 850 4
a 851 881 1
a 881 851 1
a 851 852 8
a 852 851 8
a 852 882 9
a 882 852 9
a 852 853 9
a 853 852 9
a 853 883 9
a 883 853 9
a 853 854 5
a 854 853 5
a 854 884 7
a 884 854 7
a 854 855 2
a 855 854 2
a 855 885 4
a 885 855 4
a 855 856 4
a 856 855 4
a 856 886 3
a 886 856 3
a 856 857 1
a 857 856 1
a 857 887 6
a 887 857 6
a 857 858 3
a 858 857 3
a 858 888 9
a 888 858 9
a 860 890 1
a 890 860 1
a 860 861 3
a 861 860 3
a 861 891 2
a 891 861 2
a 861 862 5
a 862 861 5
a 862 892 2
a 892 862 2
a 862 863 1
a 863 862 1
a 863 893 1
a 893 863 1
a 863 864 8
a 864 863 8
a 864 894 3
a 894 864 3
a 864 865 9
a 865 864 9
a 865 866 2
a 866 865 2
a 866 896 4
a 896 866 4
a 866 867 4
a 867 866 4
a 867 897 10
a 897 867 10
a 867 868 9
a 868 867 9
a 868 898 3
a 898 868 3
a 870 900 5
a 900 870 5
a 871 872 8
a 872 871 8
a 872 873 9
a 873 872 9
a 873 874 9
a 874 873 9
a 874 875 7
a 875 874 7
a 875 876 4
a 876 875 4
a 876 877 5
a 877 876 5
a 877 878 4
a 878 877 4
a 878 879 5
a 879 878 5
a 881 882 3
a 882 881 3
a 882 883 2
a 883 882 2
a 883 884 6
a 884 883 6
a 884 885 4
a 885 884 4
a 885 886 1
a 886 885 1
a 886 887 5
a 887 886 5
a 887 888 7
a 888 887 7
a 888 889 8
a 889 888 8
a 889 890 8
a 890 889 8
a 890 891 3
a 891 890 3
a 891 892 4
a 892 891 4
a 892 893 7
a 893 892 7
a 893 894 2
a 894 893 2
a 896 897 10
a 897 896 10
a 897 898 2
a 898 897 2
a 898 899 6
a 899 898 6
a 899 900 6
a 900 899 6
